(set-option :produce-models true)
(set-logic QF_UF)
(declare-fun p14() Bool)
(declare-fun p13() Bool)
(declare-fun p6() Bool)
(declare-fun p10() Bool)
(declare-fun p28() Bool)
(declare-fun p27() Bool)
(declare-fun p7() Bool)
(declare-fun p1() Bool)
(declare-fun p29() Bool)
(declare-fun p12() Bool)
(declare-fun p8() Bool)
(declare-fun p21() Bool)
(declare-fun p5() Bool)
(declare-fun p24() Bool)
(declare-fun p18() Bool)
(declare-fun p22() Bool)
(declare-fun p4() Bool)
(declare-fun p2() Bool)
(declare-fun p23() Bool)
(declare-fun p26() Bool)
(declare-fun p11() Bool)
(declare-fun p0() Bool)
(declare-fun p25() Bool)
(declare-fun p20() Bool)
(declare-fun p3() Bool)
(declare-fun p16() Bool)
(declare-fun p9() Bool)
(declare-fun p17() Bool)
(declare-fun p19() Bool)
(declare-fun p15() Bool)
(assert
(and (or (not p14) p13 (not p6) (not p10) p28) (or (not p27) (not p6) p7 p1 (not p29)) (or (not p12) (not p6) p8 (not p6) p21) (or (not p8) (not p8) p10 (not p5) (not p28)) (or (not p24) (not p13) p10 (not p7) p18) (or p1 p22 p1 p6 (not p7)) (or (not p14) p4 (not p24) p4 (not p18)) (or p12 (not p2) (not p23) p29 (not p1)) (or p18 (not p26) (not p5) p5 (not p22)) (or (not p13) p11 p8 p0 (not p22)) (or (not p27) p25 (not p20) (not p22) (not p10)) (or (not p2) p22 p3 p0 p16) (or (not p7) p0 (not p29) p26 p16) (or p16 p7 (not p23) (not p4) p29) (or p18 (not p20) (not p13) p12 p29) (or p13 (not p8) (not p20) p8 p0) (or (not p21) (not p16) p20 (not p4) (not p28)) (or p20 p18 p9 (not p21) (not p22)) (or p23 (not p28) (not p16) (not p3) p17) (or (not p23) (not p1) (not p18) (not p1) (not p10)) (or p21 (not p10) (not p1) (not p0) p12) (or p22 p17 p0 (not p14) (not p25)) (or (not p27) (not p29) (not p16) p4 (not p26)) (or p5 (not p3) p24 (not p6) p16) (or p24 p5 (not p19) p25 p20) (or (not p15) (not p27) (not p27) p10 p8) (or (not p25) p16 p5 (not p24) (not p25)) (or (not p9) p22 p17 p12 p2) (or p3 (not p29) p7 (not p9) p1) (or p20 (not p3) (not p22) (not p28) p1) (or p27 (not p9) (not p21) (not p27) p2) (or (not p7) p11 p18 p2 p17) (or (not p0) (not p28) (not p28) p11 (not p3)) (or p18 (not p13) (not p2) (not p6) p2) (or (not p20) (not p23) p12 p4 (not p26)) (or p18 p29 (not p2) p17 p16) (or p20 (not p21) p15 p21 (not p17)) (or (not p26) p12 (not p1) p16 (not p29)) (or (not p26) (not p27) p2 (not p8) (not p20)) (or p4 (not p29) p13 p2 (not p2)) (or p5 (not p11) p17 p15 (not p6)) (or (not p26) p9 p28 p21 p26) (or (not p10) p27 p2 p16 (not p21)) (or p22 (not p7) p6 p23 (not p25)) (or (not p6) p13 p19 p18 p27) (or p13 p5 p28 (not p4) p18) (or p15 p9 p18 p22 p16) (or p3 p14 p19 (not p5) (not p23)) (or (not p17) p1 p24 p16 (not p27)) (or p11 (not p6) (not p8) p17 (not p27)) (or p29 p29 p24 p23 (not p22)) (or p17 (not p2) p0 p4 (not p1)) (or (not p18) p18 (not p17) (not p1) (not p10)) (or (not p20) (not p19) (not p18) p13 p23) (or p15 (not p4) (not p29) p22 (not p1)) (or p18 (not p28) (not p4) (not p15) (not p11)) (or (not p21) p13 p24 (not p11) (not p2)) (or p15 p6 (not p22) p10 (not p24)) (or p26 (not p27) p28 p2 p7) (or (not p29) (not p22) p8 p14 p28) (or (not p15) p13 (not p5) p22 p26) (or p22 p14 (not p8) p13 (not p14)) (or p20 p24 (not p7) (not p15) p21) (or (not p20) (not p16) p10 (not p17) p3) (or (not p23) p1 (not p4) (not p17) (not p6)) (or (not p21) p23 (not p14) p25 (not p15)) (or p11 p1 p9 p12 p25) (or (not p23) (not p29) (not p28) p20 p13) (or (not p16) (not p5) p18 p18 p28) (or (not p20) p24 (not p10) (not p23) (not p13)) (or (not p13) (not p15) p27 (not p19) p0) (or (not p9) (not p17) p24 (not p20) p21) (or (not p6) (not p17) (not p29) p23 p25) (or (not p24) (not p14) p10 p18 p13) (or (not p6) p29 (not p15) (not p21) p2) (or p23 p7 p13 p13 p2) (or (not p11) p7 p1 (not p24) p29) (or p29 (not p20) (not p18) (not p20) (not p21)) (or (not p1) p6 p7 p6 (not p12)) (or (not p23) (not p26) (not p27) (not p21) p27) (or (not p24) p16 p2 (not p10) (not p9)) (or p7 (not p17) (not p28) (not p20) (not p26)) (or p26 p17 p2 p11 p20) (or (not p3) (not p13) (not p3) p26 (not p21)) (or p6 p22 p4 (not p9) (not p2)) (or p22 (not p13) p23 p12 p22) (or (not p2) p12 (not p7) p24 (not p11)) (or p10 (not p19) (not p24) (not p4) p2) (or p12 (not p19) (not p29) p4 p18) (or (not p7) p25 (not p7) (not p22) (not p7)) (or p7 p8 p16 p26 (not p21)) (or (not p19) (not p10) p24 p13 p3) (or p17 p4 (not p26) (not p0) (not p9)) (or p10 p26 p10 p5 (not p9)) (or p14 p26 (not p8) (not p2) (not p9)) (or p6 p10 (not p7) (not p5) p6) (or p23 (not p25) (not p18) p3 p28) (or p6 (not p8) p15 p16 p0) (or (not p29) p1 p17 (not p6) (not p16)) (or p7 p1 (not p10) p28 (not p3)) (or (not p2) p10 (not p21) (not p6) p13) (or (not p5) (not p29) (not p14) (not p11) (not p4)) (or (not p13) p4 (not p14) p12 (not p17)) (or (not p15) (not p2) p9 (not p16) p2) (or (not p22) p25 p20 p9 (not p23)) (or (not p24) (not p13) p7 (not p14) p24) (or (not p21) p12 (not p29) (not p3) p29) (or (not p18) (not p25) (not p2) (not p22) (not p25)) (or p22 p20 p8 (not p29) p27) (or (not p7) (not p26) p21 p15 (not p26)) (or p11 (not p11) (not p0) (not p9) p29) (or p5 p18 (not p3) (not p10) p12) (or (not p2) p26 p18 p6 (not p10)) (or (not p12) p19 (not p29) p9 p19) (or (not p19) p13 (not p25) p6 (not p21)) (or p29 (not p11) (not p10) p17 (not p26)) (or (not p18) (not p10) (not p25) p18 (not p18)) (or p18 (not p26) p23 p9 (not p11)) (or p14 p27 p17 (not p28) p12) (or p16 (not p4) (not p3) (not p12) (not p20)) (or p26 p24 (not p24) (not p23) (not p25)) (or (not p2) (not p4) p18 (not p23) p16) (or p16 (not p25) p17 (not p22) p11) (or p15 (not p11) (not p23) p21 (not p11)) (or (not p13) (not p11) p10 (not p0) (not p29)) (or (not p8) (not p11) p13 p6 (not p17)) (or p19 (not p9) (not p14) (not p19) p15) (or p1 (not p21) (not p26) p15 p7) (or p29 (not p29) p24 (not p21) (not p16)) (or (not p18) (not p1) p23 (not p10) p0) (or p12 (not p9) (not p24) (not p18) (not p2)) (or p19 (not p18) p22 (not p9) p18) (or p12 p20 (not p13) p17 (not p12)) (or p27 (not p13) p12 p1 p10) (or (not p26) (not p4) (not p21) p28 p2) (or (not p0) (not p17) (not p20) p3 (not p7)) (or (not p25) (not p20) p18 p22 (not p0)) (or (not p27) p0 (not p19) (not p3) (not p6)) (or (not p4) (not p6) (not p11) p12 (not p20)) (or p16 p13 p15 (not p20) p5) (or (not p29) (not p17) p1 (not p18) p25) (or (not p5) (not p15) (not p7) (not p29) (not p25)) (or p28 p16 p11 p24 (not p16)) (or (not p28) p12 (not p13) (not p23) (not p4)) (or (not p27) p0 p6 p22 (not p29)) (or p22 (not p8) p10 (not p18) (not p5)) (or p6 p24 p8 (not p20) (not p7)) (or p0 (not p8) p23 p2 p6) (or (not p3) p10 p8 p13 p18) (or (not p26) (not p4) (not p7) p19 (not p24)) (or (not p26) (not p15) (not p11) p26 p10) (or p20 (not p26) (not p14) p1 p25) (or (not p24) (not p3) p3 (not p2) (not p4)) (or (not p9) (not p19) (not p12) (not p15) p21) (or p25 (not p1) (not p8) (not p4) p6) (or (not p25) p6 (not p14) p16 p17) (or (not p20) p4 p22 p11 p6) (or (not p28) (not p29) (not p14) p4 p12) (or (not p26) p3 p3 (not p1) p3) (or (not p13) (not p19) p16 p22 p0) (or p15 (not p21) p19 p27 p7) (or (not p19) (not p17) p4 p0 p25) (or (not p5) (not p24) (not p23) (not p0) (not p15)) (or (not p15) p18 p10 (not p17) (not p25)) (or (not p13) (not p21) (not p25) (not p14) (not p26)) (or (not p1) (not p8) p2 (not p7) (not p28)) (or (not p21) p29 (not p10) (not p4) (not p25)) (or p14 (not p0) p10 p4 p6) (or p28 p22 (not p29) p28 (not p9)) (or (not p19) (not p9) p17 (not p9) p28) (or p0 (not p17) (not p9) (not p5) p20) (or (not p17) p29 p9 (not p17) p11) (or p29 (not p0) (not p15) p21 p3) (or (not p29) p18 (not p7) p19 (not p24)) (or (not p5) (not p3) p18 (not p11) p28) (or (not p9) p28 p9 p10 p26) (or p22 p23 p19 p21 (not p6)) (or (not p13) p1 (not p1) (not p26) p23) (or p15 p20 (not p6) p17 (not p5)) (or (not p5) p19 p14 p7 (not p18)) (or p3 (not p8) p2 (not p15) (not p23)) (or (not p18) p4 (not p20) p9 (not p28)) (or (not p3) (not p29) p5 (not p28) p21) (or (not p6) (not p10) (not p17) p8 (not p13)) (or (not p21) (not p10) (not p14) p15 (not p2)) (or p5 (not p9) (not p27) (not p6) p1) (or (not p20) (not p9) p8 p27 p4) (or (not p3) (not p14) (not p13) p2 p26) (or (not p12) (not p19) p26 (not p14) p10) (or p2 (not p18) p0 (not p12) (not p8)) (or (not p24) (not p9) p21 (not p25) (not p4)) (or (not p8) (not p12) (not p17) p1 (not p17)) (or p24 (not p16) p27 p2 p2) (or (not p24) (not p23) (not p29) p20 p11) (or (not p13) p27 p12 (not p2) (not p3)) (or (not p2) (not p11) (not p17) (not p15) p12) (or p9 p0 (not p15) p22 (not p2)) (or (not p26) p7 p0 (not p4) p28) (or (not p15) (not p28) p18 (not p27) (not p29)) (or p9 p11 p2 (not p16) p5) (or p14 p21 (not p28) (not p19) p28) (or p5 p15 p29 (not p3) p3) (or p12 (not p24) p24 p6 p5) (or p10 p24 (not p29) (not p29) p23) (or p0 p9 (not p8) (not p29) (not p15)) (or (not p26) (not p4) (not p28) p4 (not p25)) (or p24 (not p29) p26 p11 p21) (or (not p28) p8 (not p21) (not p24) (not p7)) (or (not p9) p11 p27 p21 (not p16)) (or p3 (not p2) (not p23) p5 (not p23)) (or p8 (not p16) (not p25) (not p4) (not p10)) (or (not p28) (not p14) p16 p0 p25) (or (not p25) (not p5) p2 (not p14) p15) (or (not p11) (not p9) p25 (not p13) (not p29)) (or (not p21) (not p5) (not p26) p3 p28) (or p10 (not p10) (not p0) (not p1) (not p14)) (or p19 (not p2) p4 p2 p20) (or p17 p24 (not p22) (not p29) p18) (or p27 p12 p19 (not p3) (not p23)) (or (not p29) (not p4) (not p3) p23 (not p7)) (or p21 (not p9) (not p4) p15 p16) (or (not p18) (not p27) p22 p11 p25) (or p3 (not p3) (not p8) (not p14) p23) (or (not p27) p10 p9 (not p15) (not p2)) (or p29 (not p21) (not p26) (not p0) (not p20)) (or p11 (not p8) (not p16) (not p18) (not p25)) (or p5 (not p9) p21 (not p4) p27) (or p26 (not p0) (not p1) (not p22) (not p8)) (or (not p5) p27 p24 p20 (not p28)) (or (not p16) (not p25) (not p1) (not p15) p3) (or (not p1) p15 p15 (not p23) (not p29)) (or p1 p14 (not p6) p8 (not p3)) (or (not p3) (not p5) (not p1) p19 (not p16)) (or (not p15) (not p29) p17 (not p9) p10) (or p24 p19 (not p23) p4 (not p1)) (or (not p24) p22 p17 p24 (not p11)) (or (not p14) p17 p11 p29 (not p28)) (or (not p13) (not p28) p1 p21 p0) (or p27 p2 p28 p13 (not p18)) (or p9 p16 p11 p27 p2) (or (not p1) p7 (not p20) p8 (not p3)) (or p27 p9 p22 p11 (not p14)) (or p13 (not p4) (not p25) (not p11) (not p26)) (or (not p4) p22 (not p23) (not p5) (not p7)) (or p27 p24 (not p9) (not p11) (not p11)) (or (not p29) p17 p19 p29 (not p25)) (or p25 p13 (not p16) (not p2) p6) (or p13 (not p22) p22 p1 p3) (or (not p19) p10 p5 p27 p16) (or (not p16) (not p9) p26 (not p11) p15) (or (not p13) p21 (not p8) (not p9) (not p5)) (or p15 (not p7) p8 p1 p10) (or (not p1) (not p4) p2 (not p15) (not p27)) (or (not p8) (not p11) p19 (not p23) p5) (or (not p4) p29 p22 (not p26) p8) (or (not p11) (not p23) p7 (not p1) p4) (or p14 p20 (not p6) p27 p17) (or p21 p1 p22 (not p15) p9) (or p9 p7 p19 p17 (not p25)) (or p29 (not p24) p10 p20 (not p20)) (or p6 p12 p27 p9 p3) (or p16 p25 (not p23) (not p8) (not p3)) (or p14 (not p20) (not p11) (not p7) (not p3)) (or (not p16) (not p16) (not p18) p7 p3) (or (not p0) (not p1) (not p7) p22 (not p14)) (or (not p29) p15 (not p3) (not p0) p0) (or (not p4) p21 (not p6) p16 (not p27)) (or p11 p23 (not p7) (not p28) p20) (or (not p23) p14 p5 p23 p20) (or (not p22) p8 p10 (not p13) (not p1)) (or (not p27) (not p20) (not p28) p6 p4) (or (not p27) p18 (not p9) p4 p21) (or p1 p14 p22 (not p26) p25) (or p21 p19 (not p5) p6 p6) (or (not p11) p28 (not p6) p26 p13) (or (not p25) p12 (not p28) (not p1) (not p13)) (or (not p3) (not p12) (not p4) (not p17) (not p8)) (or (not p13) (not p15) p17 (not p24) p20) (or (not p4) (not p7) p21 (not p17) (not p24)) (or (not p4) (not p2) (not p22) (not p14) (not p13)) (or (not p2) p23 (not p22) p23 (not p11)) (or (not p17) (not p13) p3 p12 (not p11)) (or p1 p14 p10 (not p3) p27) (or p13 (not p5) (not p18) (not p6) (not p13)) (or (not p2) p16 (not p6) (not p1) (not p3)) (or p19 (not p0) p4 (not p28) p26) (or p16 (not p1) p6 (not p12) p6) (or (not p18) p23 p2 (not p4) (not p6)) (or (not p24) (not p16) p3 p24 (not p22)) (or p26 (not p26) p5 (not p12) p17) (or p20 (not p9) p3 (not p19) p11) (or p13 p16 (not p7) (not p0) p20) (or p20 (not p0) (not p29) p21 p27) (or (not p6) p7 p1 p7 (not p10)) (or p26 (not p10) p10 p20 p27) (or (not p14) p8 (not p27) p16 (not p14)) (or (not p27) p15 (not p6) p3 p6) (or (not p0) p19 p25 p25 (not p19)) (or (not p28) (not p3) (not p17) p20 (not p7)) (or p9 (not p4) p10 p21 (not p11)) (or p24 p25 (not p7) (not p26) p20) (or (not p6) p2 p18 p11 (not p18)) (or p19 p7 (not p28) (not p12) (not p17)) (or p28 (not p8) p26 (not p10) (not p19)) (or p4 p20 p27 p26 (not p11)) (or p29 p14 p20 (not p18) (not p4)) (or p22 (not p26) p9 p3 (not p21)) (or p5 (not p11) (not p1) (not p16) p4) (or (not p21) p7 p27 (not p14) (not p5)) (or p21 (not p10) (not p2) (not p5) p8) (or p15 p3 (not p0) p8 (not p6)) (or (not p9) p10 (not p18) p21 (not p16)) (or (not p20) p24 (not p20) p22 (not p18)) (or (not p3) p12 (not p25) (not p7) (not p27)) (or p3 (not p8) p6 p25 (not p15)) (or (not p15) p7 (not p22) (not p8) p24) (or (not p12) p17 p11 (not p10) p1) (or (not p28) p24 (not p20) p28 (not p10)) (or p29 (not p29) (not p23) p15 p6) (or (not p18) (not p5) p8 p8 (not p4)) (or (not p18) (not p14) (not p9) (not p19) (not p16)) (or p17 p18 (not p22) (not p29) (not p26)) (or (not p19) (not p20) p19 (not p20) (not p11)) (or (not p5) (not p6) p22 p4 p5) (or p27 (not p5) p3 p27 (not p14)) (or p2 p13 p15 (not p0) (not p4)) (or p2 (not p0) p5 (not p21) p8) (or (not p13) (not p5) p0 (not p0) p11) (or (not p18) p23 p12 p3 (not p3)) (or p9 p22 (not p11) p16 (not p8)) (or (not p1) p18 p24 (not p8) (not p1)) (or p11 p10 p20 (not p24) (not p14)) (or (not p1) (not p26) p2 (not p15) (not p15)) (or p26 p3 (not p7) p12 (not p29)) (or (not p6) p19 (not p8) p18 p22) (or (not p28) (not p25) p17 p20 (not p21)) (or p5 p26 p9 p0 p29) (or p22 p22 p16 p11 (not p1)) (or (not p11) (not p18) p6 p14 p18) (or p10 (not p16) p8 p27 p8) (or (not p19) p24 p13 (not p29) (not p15)) (or p10 (not p28) p19 (not p6) (not p23)) (or p8 p28 (not p25) (not p16) p1) (or (not p12) p28 (not p11) p26 p26) (or (not p24) p13 (not p22) (not p26) p12) (or p25 (not p22) (not p0) (not p13) (not p20)) (or p29 p23 (not p15) (not p20) (not p25)) (or p29 p29 (not p16) p13 (not p12)) (or (not p10) p4 p5 (not p4) (not p3)) (or (not p17) (not p29) (not p20) (not p16) p20) (or p8 (not p3) p18 (not p23) p12) (or p13 (not p10) (not p27) p15 p6) (or (not p29) p28 p14 (not p14) (not p24)) (or p7 p9 (not p17) p15 p19) (or p10 (not p29) p20 p16 (not p2)) (or (not p12) (not p25) p3 p0 p7) (or p4 (not p9) p10 p16 p7) (or (not p15) (not p26) (not p26) p2 p9) (or (not p11) p10 (not p7) (not p13) p6) (or p0 p24 (not p25) (not p10) p4) (or p4 (not p24) (not p21) (not p24) (not p29)) (or (not p5) p29 p13 (not p18) p23) (or p25 (not p25) (not p1) p27 p22) (or (not p5) p0 (not p15) (not p13) (not p13)) (or p5 (not p25) (not p23) (not p16) (not p18)) (or p18 p20 (not p13) p27 p4) (or p21 (not p3) (not p24) p20 p14) (or (not p8) (not p11) p20 p26 (not p9)) (or (not p2) p3 p7 p24 p28) (or p19 p11 (not p22) p14 (not p28)) (or (not p0) (not p13) (not p29) p21 p5) (or p18 (not p16) p10 p26 (not p9)) (or p16 (not p26) p5 (not p29) (not p2)) (or (not p14) (not p1) p21 p11 p19) (or (not p27) (not p14) p10 p13 (not p6)) (or p28 p24 p0 (not p12) p14) (or p14 (not p18) (not p15) p6 p2) (or (not p3) (not p5) p28 (not p12) p23) (or (not p11) (not p15) (not p17) (not p4) p4) (or p14 (not p22) (not p1) (not p14) p20) (or p6 p4 (not p23) p19 (not p16)) (or p13 p3 p19 (not p21) (not p25)) (or (not p12) (not p29) (not p4) p2 (not p9)) (or (not p10) (not p28) (not p4) (not p22) (not p13)) (or p26 (not p15) p19 p8 p5) (or (not p9) p25 p28 p12 (not p15)) (or (not p17) (not p27) p11 p27 p18) (or (not p23) (not p19) (not p6) p1 (not p29)) (or p3 p25 (not p23) p8 (not p16)) (or (not p5) (not p27) (not p14) (not p25) (not p19)) (or (not p29) p13 p29 (not p14) (not p9)) (or (not p3) (not p1) p13 (not p14) p25) (or (not p0) p9 p8 p8 p13) (or (not p17) (not p22) (not p21) p9 p1) (or (not p8) (not p2) (not p28) (not p21) p8) (or p14 (not p25) p18 p21 p19) (or (not p15) (not p8) p3 p0 p16) (or (not p27) (not p5) p3 p3 (not p10)) (or p6 p18 p4 (not p10) (not p11)) (or p3 p19 p27 (not p18) (not p27)) (or p28 (not p12) (not p11) p29 (not p12)) (or (not p27) (not p15) (not p2) p18 (not p9)) (or (not p1) p21 p21 p28 (not p28)) (or p21 (not p4) p8 (not p22) (not p24)) (or p6 (not p7) (not p12) p7 p14) (or (not p17) (not p6) (not p21) p2 (not p2)) (or (not p24) p11 (not p26) (not p21) p5) (or (not p2) p8 p5 p28 p13) (or p3 (not p8) p21 (not p10) (not p16)) (or p16 (not p16) p19 p12 (not p7)) (or (not p3) (not p28) (not p14) p29 (not p12)) (or (not p16) (not p20) (not p14) (not p1) (not p21)) (or p24 (not p28) p12 p17 p12) (or (not p6) p0 p0 (not p27) (not p19)) (or p20 p26 p22 (not p9) (not p26)) (or (not p18) (not p20) p26 (not p25) (not p5)) (or p23 p10 p0 (not p1) (not p3)) (or p14 p5 p7 (not p12) (not p1)) (or p7 (not p25) p21 (not p18) (not p1)) (or p15 (not p5) p23 (not p3) p6) (or p6 p23 p26 p23 (not p14)) (or (not p27) (not p11) p10 (not p14) (not p24)) (or (not p11) p17 p23 (not p29) p1) (or p24 (not p22) p12 p23 (not p13)) (or p4 p19 (not p16) p1 (not p19)) (or (not p12) p11 p3 (not p29) p2) (or p13 (not p12) p1 (not p2) (not p7)) (or p27 p18 (not p22) (not p16) (not p13)) (or p14 p3 p14 (not p6) (not p25)) (or (not p17) p14 p1 p20 (not p17)) (or p26 (not p4) (not p11) (not p10) p10) (or (not p13) p1 p13 (not p19) (not p3)) (or p20 (not p23) (not p7) (not p13) (not p29)) (or (not p0) p28 p12 (not p10) (not p21)) (or p15 (not p27) (not p21) (not p26) (not p14)) (or p10 p25 p12 p5 (not p0)) (or p1 p27 (not p25) p23 p8) (or (not p15) p0 p12 p12 (not p24)) (or (not p26) (not p25) p5 (not p0) (not p21)) (or p8 (not p2) (not p10) p19 p11) (or p21 p20 (not p1) p22 p5) (or (not p12) (not p18) (not p13) p20 (not p17)) (or (not p2) p26 p13 p19 p23) (or (not p16) (not p18) p9 (not p21) p23) (or p9 (not p22) (not p20) p8 (not p22)) (or p17 (not p29) p3 p16 (not p19)) (or p12 p18 (not p23) p18 (not p29)) (or p25 p5 p28 (not p24) p0) (or p3 (not p9) p11 p11 (not p27)) (or (not p1) p27 (not p11) p27 p18) (or p4 p22 (not p14) p5 (not p4)) (or (not p0) p7 (not p14) (not p7) (not p14)) (or p1 p15 (not p28) p14 (not p28)) (or (not p15) p10 (not p29) p20 (not p18)) (or (not p26) (not p24) p0 (not p24) p4) (or (not p4) p5 (not p22) p5 p6) (or p18 p7 (not p15) (not p19) p23) (or p15 p3 p21 p15 p17) (or (not p2) (not p16) (not p6) (not p8) p3) (or p18 (not p26) p11 (not p29) (not p21)) (or (not p19) p1 p19 p26 (not p0)) (or (not p2) p8 p5 p7 p10) (or p2 p8 (not p18) (not p21) (not p14)) (or (not p14) (not p4) p5 p0 p23) (or (not p19) (not p10) (not p25) (not p6) (not p2)) (or (not p11) (not p1) (not p6) p0 (not p22)) (or (not p12) (not p8) (not p1) p27 p19) (or p28 (not p0) p26 (not p7) (not p29)) (or (not p27) p18 (not p6) (not p27) (not p25)) (or (not p22) p19 p22 p10 (not p13)) (or (not p3) (not p6) p17 p29 p29) (or p10 (not p17) (not p18) p0 (not p22)) (or p2 p27 (not p7) (not p7) (not p12)) (or p24 p21 (not p2) (not p7) p20) (or p26 p16 (not p3) p16 p26) (or p7 (not p1) (not p28) (not p16) p0) (or p26 (not p10) p2 (not p1) (not p17)) (or p6 p23 (not p19) p13 p24) (or (not p3) p29 p10 p4 p15) (or (not p4) (not p17) (not p18) p14 p9) (or (not p22) (not p11) (not p9) p18 p20) (or (not p3) (not p16) p7 (not p22) p13) (or (not p28) p14 p13 (not p16) p9) (or (not p23) (not p0) (not p5) (not p29) p1) (or p4 (not p1) p14 (not p29) p10) (or (not p9) p24 p8 p14 (not p11)) (or p22 p9 p11 (not p23) (not p28)) (or p0 (not p13) p3 p11 (not p18)) (or (not p24) p9 (not p7) p9 (not p2)) (or p15 p20 p15 p16 (not p24)) (or (not p22) p18 (not p15) p21 p5) (or p16 p13 (not p17) (not p12) p0) (or (not p18) p13 p23 p17 p13) (or p23 p24 p0 (not p0) (not p17)) (or (not p20) (not p19) p19 p19 p23) (or p8 p14 p28 p28 (not p12)) (or p28 (not p27) (not p11) (not p5) p1) (or (not p11) p12 p22 (not p16) (not p8)) (or p8 (not p27) p2 p29 (not p5)) (or (not p0) (not p13) (not p25) (not p4) (not p8)) (or p22 p8 (not p26) p1 p12) (or p8 p15 p8 p24 p23) (or (not p23) p4 (not p29) p10 p3) (or (not p16) (not p16) p0 p28 p22) (or (not p25) (not p20) (not p15) p19 (not p22)) (or (not p20) p11 (not p20) p15 p15) (or (not p5) (not p10) (not p15) (not p16) p3) (or p19 (not p20) (not p29) p9 p10) (or (not p9) p26 p27 p21 (not p25)) (or (not p14) (not p22) p26 (not p4) (not p4)) (or (not p26) p18 (not p8) p6 (not p9)) (or p21 p19 p10 p15 p21) (or (not p20) p27 p21 p23 (not p7)) (or (not p25) (not p13) (not p8) p26 (not p20)) (or p23 (not p20) p29 p3 p14) (or p16 (not p21) p26 p15 (not p24)) (or (not p9) (not p11) (not p20) (not p0) (not p22)) (or (not p11) (not p28) (not p24) (not p5) (not p4)) (or p22 (not p2) p2 (not p0) (not p10)) (or p24 (not p23) p19 (not p27) (not p8)) (or (not p1) p14 (not p20) (not p13) (not p10)) (or p29 (not p10) p9 (not p21) p24) (or (not p17) (not p29) (not p2) p29 (not p5)) (or p29 p6 p15 p16 p13) (or (not p28) (not p27) p14 (not p2) p12) (or p10 (not p12) (not p5) p7 (not p29)) (or (not p26) (not p3) (not p12) (not p25) (not p20)) (or (not p18) p22 p18 p16 p5) (or (not p1) p29 p16 p28 p13) (or p25 p9 p22 (not p9) (not p12)) (or p13 p7 p11 p6 p19) (or p22 p19 p19 (not p10) (not p12)) (or p7 (not p28) (not p6) p20 (not p9)) (or p21 (not p15) p10 p14 p20) (or p1 p6 p25 (not p2) p26) (or p25 (not p17) p16 p20 (not p22)) (or (not p8) p5 (not p8) p12 (not p24)) (or (not p15) p9 p12 (not p15) (not p11)) (or p8 (not p27) p22 p15 p16) (or (not p14) p28 (not p29) (not p22) (not p19)) (or p21 (not p21) (not p6) (not p0) (not p10)) (or (not p23) p4 p11 p27 (not p24)) (or (not p15) (not p17) (not p19) (not p18) p18) (or (not p6) (not p13) (not p14) (not p8) p4) (or (not p18) (not p26) (not p19) (not p25) p3) (or p22 (not p19) p17 p24 (not p19)) (or p23 p19 (not p14) (not p16) (not p28)) (or (not p0) (not p1) p11 (not p17) p10) (or (not p9) p22 (not p27) p11 p15) (or (not p7) p5 (not p26) (not p2) (not p5)) (or (not p7) p10 p5 (not p17) p23) (or p4 (not p9) (not p28) p10 p18) (or (not p12) p18 (not p4) p0 p7) (or p2 (not p20) p11 (not p10) (not p21)) (or p14 p25 p27 p5 p27) (or p8 (not p13) (not p27) (not p28) (not p12)) (or p19 (not p18) (not p27) (not p18) (not p29)) (or p0 (not p3) p1 (not p27) p22) (or p29 p25 (not p11) p29 (not p12)) (or (not p7) (not p15) (not p7) p24 p2) (or (not p5) (not p12) p10 p29 p26) (or (not p17) (not p16) (not p6) (not p13) (not p12)) (or p18 p18 (not p9) (not p10) p29) (or p6 (not p18) (not p0) p3 (not p11)) (or (not p24) (not p6) p15 (not p16) (not p7)) (or p7 (not p12) (not p23) p25 p5) (or p22 (not p28) (not p3) p6 (not p5)) (or p12 (not p27) p3 (not p13) (not p23)) (or p27 p27 p16 (not p9) p15) (or p22 p7 p5 (not p7) p0) (or (not p11) p2 (not p16) p20 p20) (or (not p5) p14 p19 p27 (not p15)) (or (not p18) p24 p4 p29 (not p25)) (or p9 p16 p20 (not p12) p18) (or (not p20) p21 (not p17) p7 p24) (or (not p20) (not p21) (not p2) (not p8) (not p16)) (or (not p13) p14 p28 (not p25) p25) (or p16 (not p25) p4 p3 p11) (or (not p21) (not p15) (not p25) p8 p13) (or (not p20) (not p25) p10 p23 p7) (or p6 (not p29) p13 p6 p5) (or (not p19) (not p3) p5 p19 (not p1)) (or (not p29) p6 (not p14) p1 (not p19)) (or p8 (not p22) p21 p0 p20) (or (not p17) (not p20) (not p2) p20 p28) (or p29 (not p11) p16 p29 (not p6)) (or (not p26) (not p1) p12 (not p5) (not p16)) (or p28 p21 p0 p0 (not p22)) (or (not p23) p9 p3 (not p26) p25) (or (not p11) (not p14) (not p1) p25 p27) (or (not p17) (not p20) p9 p21 p26) (or p29 p17 (not p26) p14 p22) (or (not p5) p16 (not p17) (not p25) p9) (or p9 (not p12) p6 (not p1) (not p26)) (or (not p19) (not p11) p1 p24 p1) (or p24 p27 (not p9) p21 p15) (or p7 p19 (not p26) p21 p6) (or p26 p24 (not p3) (not p15) p12) (or (not p13) (not p4) p22 (not p5) (not p4)) (or p9 (not p24) p14 (not p12) p17) (or p7 (not p12) (not p6) (not p8) (not p10)) (or (not p22) (not p13) (not p19) p6 (not p7)) (or (not p15) p27 (not p29) (not p19) (not p27)) (or p21 p1 p15 p12 (not p29)) (or p24 p28 (not p14) p22 p18) (or p4 (not p15) p10 (not p29) (not p0)) (or (not p10) p14 (not p1) (not p17) p10) (or (not p3) p9 (not p0) p0 (not p22)) (or (not p27) p6 (not p14) p19 p4) (or p4 p28 (not p13) (not p5) (not p24)) (or p13 (not p25) (not p1) p19 (not p19)) (or p4 p24 (not p19) p21 (not p0)) (or p28 p4 (not p4) p5 p24) (or (not p0) p18 (not p4) p16 (not p8)) (or p9 p19 (not p19) (not p0) p13) (or p29 (not p12) p27 p25 (not p4)) (or (not p2) p29 p12 (not p21) (not p22)) (or p22 (not p15) p22 (not p4) p2) (or p6 (not p7) (not p19) (not p29) (not p26)) (or p23 (not p10) p24 p28 p9))
)
(check-sat)
(get-model)
